r=3; %radius of tesselated grid
n=36; %how many numbers
snake = array2d(1..n,1..3,[
 %x,y,z, %n
  -1,3,-2, %1
  0,2,-2, %2
  _,_,_, %3
  _,_,_, %4
  _,_,_, %5
  _,_,_, %6
  3,0,_, %7
  _,_,_, %8
  _,_,_, %9
  2,-2,_, %10
  _,_,_, %11
  _,_,_, %12
  2,-3,_, %13
  _,_,_, %14
  _,_,_, %15
  1,-1,_, %16
  _,_,_, %17
  _,_,_,  %18
  _,_,_, %19
  _,_,_, %20
  _,_,_, %21
  -2,3,_, %22
  _,_,_, %23
  -3,3,_, %24
  _,_,_, %25
  _,_,_, %26
  -2,0,_, %27
  _,_,_, %28
  _,_,_, %29
  -1,-1,_, %30
  _,_,_, %31
  _,_,_, %32
  0,-3,_, %33
  _,_,_, %34
  _,_,_, %35
  -3,0,_  %36
]);

t=4;
tunnels = array3d(1..t,1..2,1..3,[
    0,-1,1,
    1,-2,1,
    
    -1,1,0,
    0,1,-1,
    
    0,3,-3,
    1,2,-3,
    
    2,1,-3,
    2,0,-2

]);